num_offers = 25;
num_halls = 10;
start=[9,57,17,9,33,3,67,19,41,90,22,24,3,29,47,7,27,17,46,14,12,15,76,64,19];
end=[96,96,44,19,34,86,100,61,67,92,25,68,98,31,93,63,52,73,66,30,62,59,80,86,97];
price=[1764,1424,2285,272,116,5967,719,3390,2374,181,46,534,9302,59,1068,1900,302,4879,982,335,1789,959,187,253,1845];
requirement=[349,377,825,557,441,767,868,397,352,520,570,479,384,624,541,591,241,329,201,398,462,955,331,267,737];
capacity=[822,967,596,655,669,659,489,490,623,834];
